 vasp.5.4.1 05Feb16 (build Nov 12 2018 11:59:28) complex
 executed on           IFC91_ompi date 2021.07.23  11:21:37

 INCAR:
 POTCAR:    PAW_PBE C 08Apr2002
 POTCAR:    PAW_PBE C 08Apr2002
   VRHFIN =C: s2p2

   TITEL  = PAW_PBE C 08Apr2002
   POMASS =   12.011; ZVAL   =    4.000    mass and valenz
   ENMAX  =  400.000; ENMIN  =  300.000 eV

  PAW_PBE C 08Apr2002                   :

 POSCAR: single layer graphene
  positions in cartesian coordinates
 exchange correlation table for  LEXCH =        8
   RHO(1)=    0.500       N(1)  =     2000
   RHO(2)=  100.500       N(2)  =     4000

 ion  position               nearest neighbor table
   1  0.000  0.000  0.000-   2 1.43   2 1.43   2 1.43
   2  0.333  0.333  0.000-   1 1.43   1 1.43   1 1.43

IMPORTANT INFORMATION: All symmetrisations will be switched off!
NOSYMM: (Re-)initialisation of all symmetry stuff for point group C_1.

 KPOINTS: Gamma-centered k-grid

Automatic generation of k-mesh.
Space group operators:
 irot       det(A)        alpha          n_x          n_y          n_z        tau_x        tau_y        tau_z
    1     1.000000     0.000000     1.000000     0.000000     0.000000     0.000000     0.000000     0.000000

 Subroutine IBZKPT returns following result:

 Found    452 irreducible k-points:

 Following reciprocal coordinates:
            Coordinates               Weight
  0.000000  0.000000  0.000000      1.000000
  0.033333  0.000000  0.000000      2.000000
  0.066667  0.000000  0.000000      2.000000
  0.100000  0.000000  0.000000      2.000000
  0.133333  0.000000  0.000000      2.000000
  0.166667  0.000000  0.000000      2.000000
  0.200000  0.000000  0.000000      2.000000
  0.233333  0.000000  0.000000      2.000000
  0.266667  0.000000  0.000000      2.000000
  0.300000  0.000000  0.000000      2.000000
  0.333333  0.000000  0.000000      2.000000
  0.366667  0.000000  0.000000      2.000000
  0.400000  0.000000  0.000000      2.000000
  0.433333  0.000000  0.000000      2.000000
  0.466667  0.000000  0.000000      2.000000
  0.500000  0.000000  0.000000      1.000000
  0.000000  0.033333  0.000000      2.000000
  0.033333  0.033333  0.000000      2.000000
  0.066667  0.033333  0.000000      2.000000
  0.100000  0.033333  0.000000      2.000000
  0.133333  0.033333  0.000000      2.000000
  0.166667  0.033333  0.000000      2.000000
  0.200000  0.033333  0.000000      2.000000
  0.233333  0.033333  0.000000      2.000000
  0.266667  0.033333  0.000000      2.000000
  0.300000  0.033333  0.000000      2.000000
  0.333333  0.033333  0.000000      2.000000
  0.366667  0.033333  0.000000      2.000000
  0.400000  0.033333  0.000000      2.000000
  0.433333  0.033333  0.000000      2.000000
  0.466667  0.033333  0.000000      2.000000
  0.500000  0.033333  0.000000      2.000000
 -0.466667  0.033333  0.000000      2.000000
 -0.433333  0.033333  0.000000      2.000000
 -0.400000  0.033333  0.000000      2.000000
 -0.366667  0.033333  0.000000      2.000000
 -0.333333  0.033333  0.000000      2.000000
 -0.300000  0.033333  0.000000      2.000000
 -0.266667  0.033333  0.000000      2.000000
 -0.233333  0.033333  0.000000      2.000000
 -0.200000  0.033333  0.000000      2.000000
 -0.166667  0.033333  0.000000      2.000000
 -0.133333  0.033333  0.000000      2.000000
 -0.100000  0.033333  0.000000      2.000000
 -0.066667  0.033333  0.000000      2.000000
 -0.033333  0.033333  0.000000      2.000000
  0.000000  0.066667  0.000000      2.000000
  0.033333  0.066667  0.000000      2.000000
  0.066667  0.066667  0.000000      2.000000
  0.100000  0.066667  0.000000      2.000000
  0.133333  0.066667  0.000000      2.000000
  0.166667  0.066667  0.000000      2.000000
  0.200000  0.066667  0.000000      2.000000
  0.233333  0.066667  0.000000      2.000000
  0.266667  0.066667  0.000000      2.000000
  0.300000  0.066667  0.000000      2.000000
  0.333333  0.066667  0.000000      2.000000
  0.366667  0.066667  0.000000      2.000000
  0.400000  0.066667  0.000000      2.000000
  0.433333  0.066667  0.000000      2.000000
[...]
  0.033333  0.500000  0.000000      2.000000
  0.066667  0.500000  0.000000      2.000000
  0.100000  0.500000  0.000000      2.000000
  0.133333  0.500000  0.000000      2.000000
  0.166667  0.500000  0.000000      2.000000
  0.200000  0.500000  0.000000      2.000000
  0.233333  0.500000  0.000000      2.000000
  0.266667  0.500000  0.000000      2.000000
  0.300000  0.500000  0.000000      2.000000
  0.333333  0.500000  0.000000      2.000000
  0.366667  0.500000  0.000000      2.000000
  0.400000  0.500000  0.000000      2.000000
  0.433333  0.500000  0.000000      2.000000
  0.466667  0.500000  0.000000      2.000000
  0.500000  0.500000  0.000000      1.000000

 Following cartesian coordinates:
            Coordinates               Weight
  0.000000  0.000000  0.000000      1.000000
  0.007776 -0.013468  0.000000      2.000000
  0.015552 -0.026936  0.000000      2.000000
  0.023327 -0.040404  0.000000      2.000000
  0.031103 -0.053872  0.000000      2.000000
  0.038879 -0.067340  0.000000      2.000000
  0.046655 -0.080808  0.000000      2.000000
  0.054430 -0.094276  0.000000      2.000000
  0.062206 -0.107744  0.000000      2.000000
  0.069982 -0.121212  0.000000      2.000000
  0.077758 -0.134680  0.000000      2.000000
  0.085533 -0.148148  0.000000      2.000000
  0.093309 -0.161616  0.000000      2.000000
  0.101085 -0.175084  0.000000      2.000000
  0.108861 -0.188552  0.000000      2.000000
  0.116636 -0.202020  0.000000      1.000000
  0.007776  0.013468  0.000000      2.000000
  0.015552  0.000000  0.000000      2.000000
  0.023327 -0.013468  0.000000      2.000000
  0.031103 -0.026936  0.000000      2.000000
  0.038879 -0.040404  0.000000      2.000000
  0.046655 -0.053872  0.000000      2.000000
  0.054430 -0.067340  0.000000      2.000000
  0.062206 -0.080808  0.000000      2.000000
  0.069982 -0.094276  0.000000      2.000000
  0.077758 -0.107744  0.000000      2.000000
  0.085533 -0.121212  0.000000      2.000000
  0.093309 -0.134680  0.000000      2.000000
  0.101085 -0.148148  0.000000      2.000000
  0.108861 -0.161616  0.000000      2.000000
  0.116636 -0.175084  0.000000      2.000000
  0.124412 -0.188552  0.000000      2.000000
 -0.101085  0.202020  0.000000      2.000000
 -0.093309  0.188552  0.000000      2.000000
 -0.085533  0.175084  0.000000      2.000000
 -0.077758  0.161616  0.000000      2.000000
 -0.069982  0.148148  0.000000      2.000000
 -0.062206  0.134680  0.000000      2.000000
 -0.054430  0.121212  0.000000      2.000000
 -0.046655  0.107744  0.000000      2.000000
 -0.038879  0.094276  0.000000      2.000000
 -0.031103  0.080808  0.000000      2.000000
 -0.023327  0.067340  0.000000      2.000000
 -0.015552  0.053872  0.000000      2.000000
 -0.007776  0.040404  0.000000      2.000000
  0.000000  0.026936  0.000000      2.000000
  0.015552  0.026936  0.000000      2.000000
  0.023327  0.013468  0.000000      2.000000
  0.031103  0.000000  0.000000      2.000000
  0.038879 -0.013468  0.000000      2.000000
  0.046655 -0.026936  0.000000      2.000000
  0.054430 -0.040404  0.000000      2.000000
  0.062206 -0.053872  0.000000      2.000000
  0.069982 -0.067340  0.000000      2.000000
  0.077758 -0.080808  0.000000      2.000000
  0.085533 -0.094276  0.000000      2.000000
  0.093309 -0.107744  0.000000      2.000000
  0.101085 -0.121212  0.000000      2.000000
  0.108861 -0.134680  0.000000      2.000000
  0.116636 -0.148148  0.000000      2.000000
[...]
  0.124412  0.188552  0.000000      2.000000
  0.132188  0.175084  0.000000      2.000000
  0.139964  0.161616  0.000000      2.000000
  0.147739  0.148148  0.000000      2.000000
  0.155515  0.134680  0.000000      2.000000
  0.163291  0.121212  0.000000      2.000000
  0.171067  0.107744  0.000000      2.000000
  0.178843  0.094276  0.000000      2.000000
  0.186618  0.080808  0.000000      2.000000
  0.194394  0.067340  0.000000      2.000000
  0.202170  0.053872  0.000000      2.000000
  0.209946  0.040404  0.000000      2.000000
  0.217721  0.026936  0.000000      2.000000
  0.225497  0.013468  0.000000      2.000000
  0.233273  0.000000  0.000000      1.000000

 I would recommend the setting:
   dimension x,y,z NGX =    16 NGY =   16 NGZ =  130
 SYSTEM =  unknown system
 POSCAR =  single layer graphene

 Startparameter for this run:
   NWRITE =      2    write-flag & timer
   PREC   = accura    normal or accurate (medium, high low for compatibility)
   ISTART =      1    job   : 0-new  1-cont  2-samecut
   ICHARG =     11    charge: 1-file 2-atom 10-const
   ISPIN  =      1    spin polarized calculation?
   LNONCOLLINEAR =      F non collinear calculations
   LSORBIT =      F    spin-orbit coupling
   INIWAV =      1    electr: 0-lowe 1-rand  2-diag
   LASPH  =      F    aspherical Exc in radial PAW
   METAGGA=      F    non-selfconsistent MetaGGA calc.

 Electronic Relaxation 1
   ENCUT  =  400.0 eV  29.40 Ry    5.42 a.u.   4.04  4.04 32.61*2*pi/ulx,y,z
   ENINI  =  400.0     initial cutoff
   ENAUG  =  644.9 eV  augmentation charge cutoff
   NELM   =     60;   NELMIN=  2; NELMDL=  0     # of ELM steps
   EDIFF  = 0.1E-06   stopping-criterion for ELM
   LREAL  =      F    real-space projection
   NLSPLINE    = F    spline interpolate recip. space projectors
   LCOMPAT=      F    compatible to vasp.4.4
   GGA_COMPAT  = T    GGA compatible to vasp.4.4-vasp.4.6
   LMAXPAW     = -100 max onsite density
   LMAXMIX     =    2 max onsite mixed and CHGCAR
   VOSKOWN=      0    Vosko Wilk Nusair interpolation
   ROPT   =    0.00000
 Ionic relaxation
   EDIFFG = 0.1E-05   stopping-criterion for IOM
   NSW    =      0    number of steps for IOM
   NBLOCK =      1;   KBLOCK =      1    inner block; outer block
   IBRION =     -1    ionic relax: 0-MD 1-quasi-New 2-CG
   NFREE  =      0    steps in history (QN), initial steepest desc. (CG)
   ISIF   =      2    stress and relaxation
   IWAVPR =     10    prediction:  0-non 1-charg 2-wave 3-comb
   ISYM   =      0    0-nonsym 1-usesym 2-fastsym
   LCORR  =      T    Harris-Foulkes like correction to forces

   POTIM  = 0.5000    time-step for ionic-motion
   TEIN   =    0.0    initial temperature
   TEBEG  =    0.0;   TEEND  =   0.0 temperature during run
   SMASS  =  -3.00    Nose mass-parameter (am)
   estimated Nose-frequenzy (Omega)   =  0.10E-29 period in steps =****** mass=  -0.140E-27a.u.
   SCALEE = 1.0000    scale energy and forces
   NPACO  =    256;   APACO  = 16.0  distance and # of slots for P.C.
   PSTRESS=    0.0 pullay stress

  Mass of Ions in am
   POMASS =  12.01
  Ionic Valenz
   ZVAL   =   4.00
  Atomic Wigner-Seitz radii
  virtual crystal weights
   VCA    =   1.00
   NELECT =       8.0000    total number of electrons
   NUPDOWN=      -1.0000    fix difference up-down

 DOS related values:
   EMIN   =  10.00;   EMAX   =-10.00  energy-range for DOS
   EFERMI =   0.00
   ISMEAR =     1;   SIGMA  =   0.20  broadening in eV -4-tet -1-fermi 0-gaus

 Electronic relaxation 2 (details)
   IALGO  =     68    algorithm
   LDIAG  =      T    sub-space diagonalisation (order eigenvalues)
[...]
   0.00000000  0.00000000  0.00000000
   1.42894191  0.00000000  0.00000000

 k-point  1 :   0.0000 0.0000 0.0000  plane waves:    1871
 k-point  2 :   0.0333 0.0000 0.0000  plane waves:    1865
 k-point  3 :   0.0667 0.0000 0.0000  plane waves:    1863
 k-point  4 :   0.1000 0.0000 0.0000  plane waves:    1871
 k-point  5 :   0.1333 0.0000 0.0000  plane waves:    1881
 k-point  6 :   0.1667 0.0000 0.0000  plane waves:    1891
 k-point  7 :   0.2000 0.0000 0.0000  plane waves:    1907
 k-point  8 :   0.2333 0.0000 0.0000  plane waves:    1919
 k-point  9 :   0.2667 0.0000 0.0000  plane waves:    1921
 k-point 10 :   0.3000 0.0000 0.0000  plane waves:    1923
 k-point 11 :   0.3333 0.0000 0.0000  plane waves:    1937
 k-point 12 :   0.3667 0.0000 0.0000  plane waves:    1931
 k-point 13 :   0.4000 0.0000 0.0000  plane waves:    1933
 k-point 14 :   0.4333 0.0000 0.0000  plane waves:    1931
 k-point 15 :   0.4667 0.0000 0.0000  plane waves:    1917
 k-point 16 :   0.5000 0.0000 0.0000  plane waves:    1910
 k-point 17 :   0.0000 0.0333 0.0000  plane waves:    1865
 k-point 18 :   0.0333 0.0333 0.0000  plane waves:    1865
 k-point 19 :   0.0667 0.0333 0.0000  plane waves:    1860
 k-point 20 :   0.1000 0.0333 0.0000  plane waves:    1859
 k-point 21 :   0.1333 0.0333 0.0000  plane waves:    1862
 k-point 22 :   0.1667 0.0333 0.0000  plane waves:    1885
 k-point 23 :   0.2000 0.0333 0.0000  plane waves:    1895
 k-point 24 :   0.2333 0.0333 0.0000  plane waves:    1908
 k-point 25 :   0.2667 0.0333 0.0000  plane waves:    1914
 k-point 26 :   0.3000 0.0333 0.0000  plane waves:    1918
 k-point 27 :   0.3333 0.0333 0.0000  plane waves:    1928
 k-point 28 :   0.3667 0.0333 0.0000  plane waves:    1932
 k-point 29 :   0.4000 0.0333 0.0000  plane waves:    1931
 k-point 30 :   0.4333 0.0333 0.0000  plane waves:    1931
 k-point 31 :   0.4667 0.0333 0.0000  plane waves:    1941
 k-point 32 :   0.5000 0.0333 0.0000  plane waves:    1935
 k-point 33 :  -0.4667 0.0333 0.0000  plane waves:    1935
 k-point 34 :  -0.4333 0.0333 0.0000  plane waves:    1941
 k-point 35 :  -0.4000 0.0333 0.0000  plane waves:    1931
 k-point 36 :  -0.3667 0.0333 0.0000  plane waves:    1931
 k-point 37 :  -0.3333 0.0333 0.0000  plane waves:    1932
 k-point 38 :  -0.3000 0.0333 0.0000  plane waves:    1928
 k-point 39 :  -0.2667 0.0333 0.0000  plane waves:    1918
 k-point 40 :  -0.2333 0.0333 0.0000  plane waves:    1914
 k-point 41 :  -0.2000 0.0333 0.0000  plane waves:    1908
 k-point 42 :  -0.1667 0.0333 0.0000  plane waves:    1895
 k-point 43 :  -0.1333 0.0333 0.0000  plane waves:    1885
 k-point 44 :  -0.1000 0.0333 0.0000  plane waves:    1862
 k-point 45 :  -0.0667 0.0333 0.0000  plane waves:    1859
 k-point 46 :  -0.0333 0.0333 0.0000  plane waves:    1860
 k-point 47 :   0.0000 0.0667 0.0000  plane waves:    1863
 k-point 48 :   0.0333 0.0667 0.0000  plane waves:    1860
 k-point 49 :   0.0667 0.0667 0.0000  plane waves:    1863
 k-point 50 :   0.1000 0.0667 0.0000  plane waves:    1859
 k-point 51 :   0.1333 0.0667 0.0000  plane waves:    1862
 k-point 52 :   0.1667 0.0667 0.0000  plane waves:    1873
 k-point 53 :   0.2000 0.0667 0.0000  plane waves:    1893
 k-point 54 :   0.2333 0.0667 0.0000  plane waves:    1907
 k-point 55 :   0.2667 0.0667 0.0000  plane waves:    1913
 k-point 56 :   0.3000 0.0667 0.0000  plane waves:    1923
 k-point 57 :   0.3333 0.0667 0.0000  plane waves:    1929
 k-point 58 :   0.3667 0.0667 0.0000  plane waves:    1941
 k-point 59 :   0.4000 0.0667 0.0000  plane waves:    1945
 k-point 60 :   0.4333 0.0667 0.0000  plane waves:    1941
[...]
 k-point 85 :   0.2667 0.1000 0.0000  plane waves:    1920
 k-point 86 :   0.3000 0.1000 0.0000  plane waves:    1922
 k-point 87 :   0.3333 0.1000 0.0000  plane waves:    1931
 k-point 88 :   0.3667 0.1000 0.0000  plane waves:    1939
 k-point 89 :   0.4000 0.1000 0.0000  plane waves:    1941
 k-point 90 :   0.4333 0.1000 0.0000  plane waves:    1947
 k-point 91 :   0.4667 0.1000 0.0000  plane waves:    1945
 k-point 92 :   0.5000 0.1000 0.0000  plane waves:    1949
 k-point 93 :  -0.4667 0.1000 0.0000  plane waves:    1941
 k-point 94 :  -0.4333 0.1000 0.0000  plane waves:    1941
 k-point 95 :  -0.4000 0.1000 0.0000  plane waves:    1949
 k-point 96 :  -0.3667 0.1000 0.0000  plane waves:    1945
 k-point 97 :  -0.3333 0.1000 0.0000  plane waves:    1947
 k-point 98 :  -0.3000 0.1000 0.0000  plane waves:    1941
 k-point 99 :  -0.2667 0.1000 0.0000  plane waves:    1939
 k-point ** :  -0.2333 0.1000 0.0000  plane waves:    1931
 k-point ** :  -0.2000 0.1000 0.0000  plane waves:    1922
 k-point ** :  -0.1667 0.1000 0.0000  plane waves:    1920
 k-point ** :  -0.1333 0.1000 0.0000  plane waves:    1904
 k-point ** :  -0.1000 0.1000 0.0000  plane waves:    1888
 k-point ** :  -0.0667 0.1000 0.0000  plane waves:    1873
 k-point ** :  -0.0333 0.1000 0.0000  plane waves:    1862
 k-point ** :   0.0000 0.1333 0.0000  plane waves:    1881
 k-point ** :   0.0333 0.1333 0.0000  plane waves:    1862
 k-point ** :   0.0667 0.1333 0.0000  plane waves:    1862
 k-point ** :   0.1000 0.1333 0.0000  plane waves:    1862
 k-point ** :   0.1333 0.1333 0.0000  plane waves:    1881
 k-point ** :   0.1667 0.1333 0.0000  plane waves:    1885
 k-point ** :   0.2000 0.1333 0.0000  plane waves:    1893
 k-point ** :   0.2333 0.1333 0.0000  plane waves:    1904
 k-point ** :   0.2667 0.1333 0.0000  plane waves:    1918
 k-point ** :   0.3000 0.1333 0.0000  plane waves:    1930
 k-point ** :   0.3333 0.1333 0.0000  plane waves:    1930
 k-point ** :   0.3667 0.1333 0.0000  plane waves:    1937
 k-point ** :   0.4000 0.1333 0.0000  plane waves:    1939
 k-point ** :   0.4333 0.1333 0.0000  plane waves:    1945
 k-point ** :   0.4667 0.1333 0.0000  plane waves:    1945
 k-point ** :   0.5000 0.1333 0.0000  plane waves:    1949
 k-point ** :  -0.4667 0.1333 0.0000  plane waves:    1947
 k-point ** :  -0.4333 0.1333 0.0000  plane waves:    1940
 k-point ** :  -0.4000 0.1333 0.0000  plane waves:    1947
 k-point ** :  -0.3667 0.1333 0.0000  plane waves:    1949
 k-point ** :  -0.3333 0.1333 0.0000  plane waves:    1945
 k-point ** :  -0.3000 0.1333 0.0000  plane waves:    1945
 k-point ** :  -0.2667 0.1333 0.0000  plane waves:    1939
 k-point ** :  -0.2333 0.1333 0.0000  plane waves:    1937
 k-point ** :  -0.2000 0.1333 0.0000  plane waves:    1930
 k-point ** :  -0.1667 0.1333 0.0000  plane waves:    1930
 k-point ** :  -0.1333 0.1333 0.0000  plane waves:    1918
 k-point ** :  -0.1000 0.1333 0.0000  plane waves:    1904
 k-point ** :  -0.0667 0.1333 0.0000  plane waves:    1893
 k-point ** :  -0.0333 0.1333 0.0000  plane waves:    1885
 k-point ** :   0.0000 0.1667 0.0000  plane waves:    1891
 k-point ** :   0.0333 0.1667 0.0000  plane waves:    1885
 k-point ** :   0.0667 0.1667 0.0000  plane waves:    1873
 k-point ** :   0.1000 0.1667 0.0000  plane waves:    1873
 k-point ** :   0.1333 0.1667 0.0000  plane waves:    1885
 k-point ** :   0.1667 0.1667 0.0000  plane waves:    1891
 k-point ** :   0.2000 0.1667 0.0000  plane waves:    1895
 k-point ** :   0.2333 0.1667 0.0000  plane waves:    1907
 k-point ** :   0.2667 0.1667 0.0000  plane waves:    1920
 k-point ** :   0.3000 0.1667 0.0000  plane waves:    1930
 k-point ** :   0.3333 0.1667 0.0000  plane waves:    1928
 k-point ** :   0.3667 0.1667 0.0000  plane waves:    1938
 k-point ** :   0.4000 0.1667 0.0000  plane waves:    1936
 k-point ** :   0.4333 0.1667 0.0000  plane waves:    1949
 k-point ** :   0.4667 0.1667 0.0000  plane waves:    1953
 k-point ** :   0.5000 0.1667 0.0000  plane waves:    1951
 k-point ** :  -0.4667 0.1667 0.0000  plane waves:    1951
 k-point ** :  -0.4333 0.1667 0.0000  plane waves:    1947
 k-point ** :  -0.4000 0.1667 0.0000  plane waves:    1947
 k-point ** :  -0.3667 0.1667 0.0000  plane waves:    1951
 k-point ** :  -0.3333 0.1667 0.0000  plane waves:    1951
 k-point ** :  -0.3000 0.1667 0.0000  plane waves:    1953
 k-point ** :  -0.2667 0.1667 0.0000  plane waves:    1949
[...]
 k-point ** :   0.0333 0.5000 0.0000  plane waves:    1935
 k-point ** :   0.0667 0.5000 0.0000  plane waves:    1945
 k-point ** :   0.1000 0.5000 0.0000  plane waves:    1949
 k-point ** :   0.1333 0.5000 0.0000  plane waves:    1949
 k-point ** :   0.1667 0.5000 0.0000  plane waves:    1951
 k-point ** :   0.2000 0.5000 0.0000  plane waves:    1947
 k-point ** :   0.2333 0.5000 0.0000  plane waves:    1940
 k-point ** :   0.2667 0.5000 0.0000  plane waves:    1940
 k-point ** :   0.3000 0.5000 0.0000  plane waves:    1947
 k-point ** :   0.3333 0.5000 0.0000  plane waves:    1951
 k-point ** :   0.3667 0.5000 0.0000  plane waves:    1949
 k-point ** :   0.4000 0.5000 0.0000  plane waves:    1949
 k-point ** :   0.4333 0.5000 0.0000  plane waves:    1945
 k-point ** :   0.4667 0.5000 0.0000  plane waves:    1935
 k-point ** :   0.5000 0.5000 0.0000  plane waves:    1910

 maximum and minimum number of plane-waves per node :      1953     1859

 maximum number of plane-waves:      1953
 maximum index in each direction:
   IXMAX=    4   IYMAX=    4   IZMAX=   32
   IXMIN=   -4   IYMIN=   -4   IZMIN=  -32

 WARNING: aliasing errors must be expected set NGX to  18 to avoid them
 WARNING: aliasing errors must be expected set NGY to  18 to avoid them
 NGZ is ok and might be reduce to 130
 aliasing errors are usually negligible using standard VASP settings
 and one can safely disregard these warnings

 serial   3D FFT for wavefunctions
 parallel 3D FFT for charge:
    minimum data exchange during FFTs selected (reduces bandwidth)

 initial charge density was supplied:
 number of electron       8.0000000 magnetization
 keeping initial charge density in first step

 Maximum index for augmentation-charges         3871 (set IRDMAX)

 First call to EWALD:  gamma=   0.374
 Maximum number of real-space cells 5x 5x 1
 Maximum number of reciprocal cells 2x 2x10

 FEWALD executed in parallel

----------------------------------------- Iteration    1(   1)  ---------------------------------------

 eigenvalue-minimisations  :  9880
 total energy-change (2. order) :-0.1778816E+02  (-0.5022141E+02)
 number of electron       8.0000000 magnetization
 augmentation part        8.0000000 magnetization

 DIPCOR: dipole corrections for dipol
 direction  3 min pos   146,
 dipolmoment           0.000000      0.000000      0.000003 electrons x Angstroem
 Tr[quadrupol]        -4.598090

 energy correction for charged system         0.000000 eV
 dipol+quadrupol energy correction           -0.000000 eV
 added-field ion interaction          0.000013 eV  (added to PSCEN)

 Free energy of the ion-electron system (eV)
  alpha Z        PSCENC =         3.09699888
  Ewald energy   TEWEN  =      1283.42325059
  -Hartree energ DENC   =     -1530.27359230
  -exchange      EXHF   =         0.00000000
  -V(xc)+E(xc)   XCENC  =        27.47671583
  PAW double counting   =       842.71371976     -844.05982391
  entropy T*S    EENTRO =        -0.00023314
  eigenvalues    EBANDS =       -94.41964340
  atomic energy  EATOM  =       294.25444774
  Solvation  Ediel_sol  =         0.00000000
  free energy    TOTEN  =       -17.78815994 eV

  energy without entropy =      -17.78792680  energy(sigma->0) =      -17.78808223

[...]

----------------------------------------- Iteration    1(   8)  ---------------------------------------

WARNING in EDDRMM: call to ZHEGV failed, returncode =   6  3  8
WARNING in EDDRMM: call to ZHEGV failed, returncode =   8  4  7
WARNING in EDDRMM: call to ZHEGV failed, returncode =   8  4  7

 eigenvalue-minimisations  :  7195
 total energy-change (2. order) :-0.2582988E-07  (-0.2403727E-07)
 number of electron       8.0000000 magnetization
 augmentation part        8.0000000 magnetization

 DIPCOR: dipole corrections for dipol
 direction  3 min pos   146,
 dipolmoment           0.000000      0.000000      0.000003 electrons x Angstroem
 Tr[quadrupol]        -4.598090

 energy correction for charged system         0.000000 eV
 dipol+quadrupol energy correction           -0.000000 eV
 added-field ion interaction          0.000013 eV  (added to PSCEN)

 Free energy of the ion-electron system (eV)
  alpha Z        PSCENC =         3.09699888
  Ewald energy   TEWEN  =      1283.42325059
  -Hartree energ DENC   =     -1530.27359230
  -exchange      EXHF   =         0.00000000
  -V(xc)+E(xc)   XCENC  =        27.47671583
  PAW double counting   =       842.71371976     -844.05982391
  entropy T*S    EENTRO =        -0.00023313
  eigenvalues    EBANDS =       -95.09480435
  atomic energy  EATOM  =       294.25444774
  Solvation  Ediel_sol  =         0.00000000
  free energy    TOTEN  =       -18.46332089 eV

  energy without entropy =      -18.46308776  energy(sigma->0) =      -18.46324318

 average (electrostatic) potential at core
  the test charge radii are     0.6991
  (the norm of the test charge is              1.0000)
       1 -58.2649       2 -58.2648

 E-fermi :  -2.7859     XC(G=0):  -2.1831     alpha+bet : -1.8892

 k-point     1 :       0.0000    0.0000    0.0000
  band No.  band energies     occupation
      1     -22.2203      2.00000
      2     -10.3322      2.00000
      3      -5.8214      2.00000
      4      -5.8214      2.00000
      5       0.5130     -0.00000
      6       1.3003     -0.00000
      7       1.6239     -0.00000
      8       2.5441     -0.00000

[...]

 k-point   452 :       0.5000    0.5000    0.0000
  band No.  band energies     occupation
      1     -17.0290      2.00000
      2     -15.9518      2.00000
      3      -9.1676      2.00000
      4      -5.1260      2.00000
      5      -1.1101     -0.00000
      6       4.4788      0.00000
      7       8.3703      0.00000
      8       9.1839      0.00000

 soft charge-density along one line, spin component           1
         0         1         2         3         4         5         6         7         8         9
 total charge-density along one line

------------------------ aborting loop because EDIFF is reached ----------------------------------------

  FORCE on cell =-STRESS in cart. coord.  units (eV):
  Direction    XX          YY          ZZ          XY          YZ          ZX
  Alpha Z     3.09699     3.09699     3.09699
  Ewald    1551.31826  1551.31826 -1819.21330     0.00000     0.00000     0.00000
  Hartree  1518.88551  1518.88546 -1507.49731     0.00000    -0.00000    -0.00000
  E(xc)     -29.64241   -29.64241   -30.75475     0.00000     0.00000    -0.00000
  Local   -3156.03739 -3156.03730  3224.13009     0.00001     0.00000    -0.00000
  n-local    -6.99559    -6.99561    -6.41530     0.00001    -0.00000    -0.00000
  augment    -0.76126    -0.76121    -0.70509    -0.00000    -0.00000     0.00000
  Kinetic   119.52421   119.52432   137.07605    -0.00003     0.00000     0.00000
  Fock        0.00000     0.00000     0.00000     0.00000     0.00000     0.00000
  Total      -0.61168    -0.61150    -0.28263    -0.00001     0.00000     0.00000
  in kB      -9.23682    -9.23414    -4.26793    -0.00015     0.00000     0.00000

 VOLUME and BASIS-vectors are now :
  energy-cutoff  :      400.00
  volume of cell :      106.10
      direct lattice vectors                 reciprocal lattice vectors
     2.143412872 -1.237500000  0.000000000     0.233272836 -0.404040404  0.000000000
     2.143412872  1.237500000  0.000000000     0.233272836  0.404040404 -0.000000000
     0.000000000  0.000000000 20.000000000    -0.000000000  0.000000000  0.050000000

  length of vectors
     2.474999998  2.474999998 20.000000000     0.466545672  0.466545672  0.050000000

 FORCES acting on ions
    electron-ion (+dipol)            ewald-force                    non-local-force                 convergence-correction
   0.128E-03 -.158E-04 -.364E-04   -.211E-06 -.182E-14 0.000E+00   -.222E-04 0.206E-04 -.423E-05   -.727E-04 0.333E-05 0.394E-04
   -.194E-03 0.164E-04 -.362E-04   0.211E-06 0.623E-14 0.000E+00   0.267E-04 -.210E-04 -.478E-05   0.119E-03 -.345E-05 0.393E-04
   -.657E-04 0.594E-06 -.726E-04   0.111E-13 0.442E-14 0.000E+00   0.447E-05 -.330E-06 -.901E-05   0.465E-04 -.124E-06 0.788E-04

 POSITION                                       TOTAL-FORCE (eV/Angst)
      0.00000      0.00000      0.00000         0.000041      0.000008      0.000000
      1.42894      0.00000      0.00000        -0.000041     -0.000008     -0.000000
    total drift:                               -0.000015      0.000000     -0.000003

  FREE ENERGIE OF THE ION-ELECTRON SYSTEM (eV)
  free  energy   TOTEN  =       -18.46332089 eV

  energy  without entropy=      -18.46308776  energy(sigma->0) =      -18.46324318

 writing wavefunctions
 vacuum level on the upper side and lower side of the slab         1.497         1.497