 vasp.5.4.1 05Feb16 (build Nov 12 2018 11:59:28) complex
 executed on           IFC91_ompi date 2021.07.23  11:18:42

 INCAR:
 POTCAR:    PAW_PBE C 08Apr2002
 POTCAR:    PAW_PBE C 08Apr2002
   VRHFIN =C: s2p2

   TITEL  = PAW_PBE C 08Apr2002
   POMASS =   12.011; ZVAL   =    4.000    mass and valenz
   ENMAX  =  400.000; ENMIN  =  300.000 eV

  PAW_PBE C 08Apr2002                   :

 POSCAR: single layer graphene
  positions in cartesian coordinates
 exchange correlation table for  LEXCH =        8
   RHO(1)=    0.500       N(1)  =     2000
   RHO(2)=  100.500       N(2)  =     4000

 ion  position               nearest neighbor table
   1  0.000  0.000  0.000-   2 1.43   2 1.43   2 1.43
   2  0.333  0.333  0.000-   1 1.43   1 1.43   1 1.43

  LATTYP: Found a hexagonal cell.
 ALAT       =     2.4750000000
 C/A-ratio  =     8.0808080808

  Lattice vectors:

 A1 = (   0.0000000000,  -2.4750000000,   0.0000000000)
 A2 = (  -2.1434128724,   1.2375000000,   0.0000000000)
 A3 = (   0.0000000000,  -0.0000000000, -20.0000000000)

Analysis of symmetry for initial positions (statically):
 Subroutine PRICEL returns:
 Original cell was already a primitive cell.

 Routine SETGRP: Setting up the symmetry group for a
 hexagonal supercell.

 Subroutine GETGRP returns: Found 24 space group operations
 (whereof 12 operations were pure point group operations)
 out of a pool of 24 trial point group operations.

The static configuration has the point symmetry D_3h.
 The point group associated with its full space group is D_6h.

Analysis of symmetry for dynamics (positions and initial velocities):
 Subroutine PRICEL returns:
 Original cell was already a primitive cell.

 Routine SETGRP: Setting up the symmetry group for a
 hexagonal supercell.

 Subroutine GETGRP returns: Found 24 space group operations
 (whereof 12 operations were pure point group operations)
 out of a pool of 24 trial point group operations.

The dynamic configuration has the point symmetry D_3h.
 The point group associated with its full space group is D_6h.

 Subroutine INISYM returns: Found 24 space group operations
 (whereof 12 operations are pure point group operations),
 and found     1 'primitive' translations

 KPOINTS: Gamma-centered k-grid

Automatic generation of k-mesh.
Space group operators:
 irot       det(A)        alpha          n_x          n_y          n_z        tau_x        tau_y        tau_z
    1     1.000000     0.000000     1.000000     0.000000     0.000000     0.000000     0.000000     0.000000
    2    -1.000000    60.000000     0.000000     0.000000     1.000000     0.000000     0.000000     0.000000
    3     1.000000   120.000000     0.000000     0.000000     1.000000     0.000000     0.000000     0.000000
    4    -1.000000   180.000000     0.000000     0.000000     1.000000     0.000000     0.000000     0.000000
    5     1.000000   120.000000     0.000000     0.000000    -1.000000     0.000000     0.000000     0.000000
    6    -1.000000    60.000000     0.000000     0.000000    -1.000000     0.000000     0.000000     0.000000
    7    -1.000000   179.999999    -0.000000     1.000000     0.000000     0.000000     0.000000     0.000000
    8     1.000000   180.000000     0.500000    -0.866025     0.000000     0.000000     0.000000     0.000000
    9    -1.000000   180.000000     0.866025    -0.500000     0.000000     0.000000     0.000000     0.000000
   10     1.000000   180.000000     1.000000     0.000000     0.000000     0.000000     0.000000     0.000000
   11    -1.000000   180.000000     0.866025     0.500000     0.000000     0.000000     0.000000     0.000000
   12     1.000000   180.000000    -0.500000    -0.866025     0.000000     0.000000     0.000000     0.000000
   13    -1.000000     0.000000     1.000000     0.000000     0.000000     0.333333    -0.666667     0.000000
   14     1.000000    60.000000     0.000000     0.000000     1.000000     0.333333    -0.666667     0.000000
   15    -1.000000   120.000000     0.000000     0.000000     1.000000     0.333333    -0.666667     0.000000
   16     1.000000   180.000000     0.000000     0.000000     1.000000     0.333333    -0.666667     0.000000
   17    -1.000000   120.000000     0.000000     0.000000    -1.000000     0.333333    -0.666667     0.000000
   18     1.000000    60.000000     0.000000     0.000000    -1.000000     0.333333    -0.666667     0.000000
   19     1.000000   179.999999    -0.000000     1.000000     0.000000     0.333333    -0.666667     0.000000
   20    -1.000000   180.000000     0.500000    -0.866025     0.000000     0.333333    -0.666667     0.000000
   21     1.000000   180.000000     0.866025    -0.500000     0.000000     0.333333    -0.666667     0.000000
   22    -1.000000   180.000000     1.000000     0.000000     0.000000     0.333333    -0.666667     0.000000
   23     1.000000   180.000000     0.866025     0.500000     0.000000     0.333333    -0.666667     0.000000
   24    -1.000000   180.000000    -0.500000    -0.866025     0.000000     0.333333    -0.666667     0.000000

 Subroutine IBZKPT returns following result:

 Found     91 irreducible k-points:

 Following reciprocal coordinates:
            Coordinates               Weight
  0.000000  0.000000  0.000000      1.000000
  0.033333  0.000000  0.000000      6.000000
  0.066667  0.000000  0.000000      6.000000
  0.100000  0.000000  0.000000      6.000000
  0.133333  0.000000  0.000000      6.000000
  0.166667  0.000000  0.000000      6.000000
  0.200000  0.000000  0.000000      6.000000
  0.233333  0.000000  0.000000      6.000000
  0.266667  0.000000  0.000000      6.000000
  0.300000  0.000000  0.000000      6.000000
  0.333333  0.000000  0.000000      6.000000
  0.366667  0.000000  0.000000      6.000000
  0.400000  0.000000  0.000000      6.000000
  0.433333  0.000000  0.000000      6.000000
  0.466667  0.000000  0.000000      6.000000
  0.500000  0.000000  0.000000      3.000000
  0.066667  0.033333  0.000000      6.000000
  0.100000  0.033333  0.000000     12.000000
  0.133333  0.033333  0.000000     12.000000
  0.166667  0.033333  0.000000     12.000000
  0.200000  0.033333  0.000000     12.000000
  0.233333  0.033333  0.000000     12.000000
  0.266667  0.033333  0.000000     12.000000
  0.300000  0.033333  0.000000     12.000000
  0.333333  0.033333  0.000000     12.000000
  0.366667  0.033333  0.000000     12.000000
  0.400000  0.033333  0.000000     12.000000
  0.433333  0.033333  0.000000     12.000000
  0.466667  0.033333  0.000000     12.000000
  0.500000  0.033333  0.000000     12.000000
  0.133333  0.066667  0.000000      6.000000
  0.166667  0.066667  0.000000     12.000000
  0.200000  0.066667  0.000000     12.000000
  0.233333  0.066667  0.000000     12.000000
  0.266667  0.066667  0.000000     12.000000
  0.300000  0.066667  0.000000     12.000000
  0.333333  0.066667  0.000000     12.000000
  0.366667  0.066667  0.000000     12.000000
  0.400000  0.066667  0.000000     12.000000
  0.433333  0.066667  0.000000     12.000000
  0.466667  0.066667  0.000000     12.000000
  0.500000  0.066667  0.000000     12.000000
 -0.466667  0.066667  0.000000      6.000000
  0.200000  0.100000  0.000000      6.000000
  0.233333  0.100000  0.000000     12.000000
  0.266667  0.100000  0.000000     12.000000
  0.300000  0.100000  0.000000     12.000000
  0.333333  0.100000  0.000000     12.000000
  0.366667  0.100000  0.000000     12.000000
  0.400000  0.100000  0.000000     12.000000
  0.433333  0.100000  0.000000     12.000000
  0.466667  0.100000  0.000000     12.000000
  0.500000  0.100000  0.000000     12.000000
 -0.466667  0.100000  0.000000     12.000000
  0.266667  0.133333  0.000000      6.000000
  0.300000  0.133333  0.000000     12.000000
  0.333333  0.133333  0.000000     12.000000
  0.366667  0.133333  0.000000     12.000000
  0.400000  0.133333  0.000000     12.000000
  0.433333  0.133333  0.000000     12.000000
[...]
 -0.466667  0.200000  0.000000     12.000000
 -0.433333  0.200000  0.000000     12.000000
 -0.400000  0.200000  0.000000      6.000000
  0.466667  0.233333  0.000000      6.000000
  0.500000  0.233333  0.000000     12.000000
 -0.466667  0.233333  0.000000     12.000000
 -0.433333  0.233333  0.000000     12.000000
 -0.400000  0.233333  0.000000     12.000000
 -0.466667  0.266667  0.000000      6.000000
 -0.433333  0.266667  0.000000     12.000000
 -0.400000  0.266667  0.000000     12.000000
 -0.366667  0.266667  0.000000      6.000000
 -0.400000  0.300000  0.000000      6.000000
 -0.366667  0.300000  0.000000     12.000000
 -0.333333  0.333333  0.000000      2.000000

 Following cartesian coordinates:
            Coordinates               Weight
  0.000000  0.000000  0.000000      1.000000
  0.007776 -0.013468  0.000000      6.000000
  0.015552 -0.026936  0.000000      6.000000
  0.023327 -0.040404  0.000000      6.000000
  0.031103 -0.053872  0.000000      6.000000
  0.038879 -0.067340  0.000000      6.000000
  0.046655 -0.080808  0.000000      6.000000
  0.054430 -0.094276  0.000000      6.000000
  0.062206 -0.107744  0.000000      6.000000
  0.069982 -0.121212  0.000000      6.000000
  0.077758 -0.134680  0.000000      6.000000
  0.085533 -0.148148  0.000000      6.000000
  0.093309 -0.161616  0.000000      6.000000
  0.101085 -0.175084  0.000000      6.000000
  0.108861 -0.188552  0.000000      6.000000
  0.116636 -0.202020  0.000000      3.000000
  0.023327 -0.013468  0.000000      6.000000
  0.031103 -0.026936  0.000000     12.000000
  0.038879 -0.040404  0.000000     12.000000
  0.046655 -0.053872  0.000000     12.000000
  0.054430 -0.067340  0.000000     12.000000
  0.062206 -0.080808  0.000000     12.000000
  0.069982 -0.094276  0.000000     12.000000
  0.077758 -0.107744  0.000000     12.000000
  0.085533 -0.121212  0.000000     12.000000
  0.093309 -0.134680  0.000000     12.000000
  0.101085 -0.148148  0.000000     12.000000
  0.108861 -0.161616  0.000000     12.000000
  0.116636 -0.175084  0.000000     12.000000
  0.124412 -0.188552  0.000000     12.000000
  0.046655 -0.026936  0.000000      6.000000
  0.054430 -0.040404  0.000000     12.000000
  0.062206 -0.053872  0.000000     12.000000
  0.069982 -0.067340  0.000000     12.000000
  0.077758 -0.080808  0.000000     12.000000
  0.085533 -0.094276  0.000000     12.000000
  0.093309 -0.107744  0.000000     12.000000
  0.101085 -0.121212  0.000000     12.000000
  0.108861 -0.134680  0.000000     12.000000
  0.116636 -0.148148  0.000000     12.000000
  0.124412 -0.161616  0.000000     12.000000
  0.132188 -0.175084  0.000000     12.000000
 -0.093309  0.215488  0.000000      6.000000
  0.069982 -0.040404  0.000000      6.000000
  0.077758 -0.053872  0.000000     12.000000
  0.085533 -0.067340  0.000000     12.000000
  0.093309 -0.080808  0.000000     12.000000
  0.101085 -0.094276  0.000000     12.000000
  0.108861 -0.107744  0.000000     12.000000
  0.116636 -0.121212  0.000000     12.000000
  0.124412 -0.134680  0.000000     12.000000
  0.132188 -0.148148  0.000000     12.000000
  0.139964 -0.161616  0.000000     12.000000
 -0.085533  0.228956  0.000000     12.000000
  0.093309 -0.053872  0.000000      6.000000
  0.101085 -0.067340  0.000000     12.000000
[...]
   0.36666667  0.00000000  0.00000000       0.007
   0.40000000  0.00000000  0.00000000       0.007
   0.43333333  0.00000000  0.00000000       0.007
   0.46666667  0.00000000  0.00000000       0.007
   0.50000000  0.00000000  0.00000000       0.003
   0.06666667  0.03333333  0.00000000       0.007
   0.10000000  0.03333333  0.00000000       0.013
   0.13333333  0.03333333  0.00000000       0.013
   0.16666667  0.03333333  0.00000000       0.013
   0.20000000  0.03333333  0.00000000       0.013
   0.23333333  0.03333333  0.00000000       0.013
   0.26666667  0.03333333  0.00000000       0.013
   0.30000000  0.03333333  0.00000000       0.013
   0.33333333  0.03333333  0.00000000       0.013
   0.36666667  0.03333333  0.00000000       0.013
   0.40000000  0.03333333  0.00000000       0.013
   0.43333333  0.03333333  0.00000000       0.013
   0.46666667  0.03333333  0.00000000       0.013
   0.50000000  0.03333333  0.00000000       0.013
   0.13333333  0.06666667  0.00000000       0.007
   0.16666667  0.06666667  0.00000000       0.013
   0.20000000  0.06666667  0.00000000       0.013
   0.23333333  0.06666667  0.00000000       0.013
   0.26666667  0.06666667  0.00000000       0.013
   0.30000000  0.06666667  0.00000000       0.013
   0.33333333  0.06666667  0.00000000       0.013
   0.36666667  0.06666667  0.00000000       0.013
   0.40000000  0.06666667  0.00000000       0.013
   0.43333333  0.06666667  0.00000000       0.013
   0.46666667  0.06666667  0.00000000       0.013
   0.50000000  0.06666667  0.00000000       0.013
  -0.46666667  0.06666667  0.00000000       0.007
   0.20000000  0.10000000  0.00000000       0.007
   0.23333333  0.10000000  0.00000000       0.013
   0.26666667  0.10000000  0.00000000       0.013
   0.30000000  0.10000000  0.00000000       0.013
   0.33333333  0.10000000  0.00000000       0.013
   0.36666667  0.10000000  0.00000000       0.013
   0.40000000  0.10000000  0.00000000       0.013
   0.43333333  0.10000000  0.00000000       0.013
   0.46666667  0.10000000  0.00000000       0.013
   0.50000000  0.10000000  0.00000000       0.013
  -0.46666667  0.10000000  0.00000000       0.013
   0.26666667  0.13333333  0.00000000       0.007
   0.30000000  0.13333333  0.00000000       0.013
   0.33333333  0.13333333  0.00000000       0.013
   0.36666667  0.13333333  0.00000000       0.013
   0.40000000  0.13333333  0.00000000       0.013
   0.43333333  0.13333333  0.00000000       0.013
[...]
  -0.46666667  0.20000000  0.00000000       0.013
  -0.43333333  0.20000000  0.00000000       0.013
  -0.40000000  0.20000000  0.00000000       0.007
   0.46666667  0.23333333  0.00000000       0.007
   0.50000000  0.23333333  0.00000000       0.013
  -0.46666667  0.23333333  0.00000000       0.013
  -0.43333333  0.23333333  0.00000000       0.013
  -0.40000000  0.23333333  0.00000000       0.013
  -0.46666667  0.26666667  0.00000000       0.007
  -0.43333333  0.26666667  0.00000000       0.013
  -0.40000000  0.26666667  0.00000000       0.013
  -0.36666667  0.26666667  0.00000000       0.007
  -0.40000000  0.30000000  0.00000000       0.007
  -0.36666667  0.30000000  0.00000000       0.013
  -0.33333333  0.33333333  0.00000000       0.002

 position of ions in fractional coordinates (direct lattice)
   0.00000000  0.00000000  0.00000000
   0.33333333  0.33333333  0.00000000

 position of ions in cartesian coordinates  (Angst):
   0.00000000  0.00000000  0.00000000
   1.42894191  0.00000000  0.00000000

 k-point  1 :   0.0000 0.0000 0.0000  plane waves:    1871
 k-point  2 :   0.0333 0.0000 0.0000  plane waves:    1865
 k-point  3 :   0.0667 0.0000 0.0000  plane waves:    1863
 k-point  4 :   0.1000 0.0000 0.0000  plane waves:    1871
 k-point  5 :   0.1333 0.0000 0.0000  plane waves:    1881
 k-point  6 :   0.1667 0.0000 0.0000  plane waves:    1891
 k-point  7 :   0.2000 0.0000 0.0000  plane waves:    1907
 k-point  8 :   0.2333 0.0000 0.0000  plane waves:    1919
 k-point  9 :   0.2667 0.0000 0.0000  plane waves:    1921
 k-point 10 :   0.3000 0.0000 0.0000  plane waves:    1923
 k-point 11 :   0.3333 0.0000 0.0000  plane waves:    1937
 k-point 12 :   0.3667 0.0000 0.0000  plane waves:    1931
 k-point 13 :   0.4000 0.0000 0.0000  plane waves:    1933
 k-point 14 :   0.4333 0.0000 0.0000  plane waves:    1931
 k-point 15 :   0.4667 0.0000 0.0000  plane waves:    1917
 k-point 16 :   0.5000 0.0000 0.0000  plane waves:    1910
 k-point 17 :   0.0667 0.0333 0.0000  plane waves:    1860
 k-point 18 :   0.1000 0.0333 0.0000  plane waves:    1859
 k-point 19 :   0.1333 0.0333 0.0000  plane waves:    1862
 k-point 20 :   0.1667 0.0333 0.0000  plane waves:    1885
 k-point 21 :   0.2000 0.0333 0.0000  plane waves:    1895
 k-point 22 :   0.2333 0.0333 0.0000  plane waves:    1908
 k-point 23 :   0.2667 0.0333 0.0000  plane waves:    1914
 k-point 24 :   0.3000 0.0333 0.0000  plane waves:    1918
 k-point 25 :   0.3333 0.0333 0.0000  plane waves:    1928
 k-point 26 :   0.3667 0.0333 0.0000  plane waves:    1932
 k-point 27 :   0.4000 0.0333 0.0000  plane waves:    1931
 k-point 28 :   0.4333 0.0333 0.0000  plane waves:    1931
 k-point 29 :   0.4667 0.0333 0.0000  plane waves:    1941
 k-point 30 :   0.5000 0.0333 0.0000  plane waves:    1935
 k-point 31 :   0.1333 0.0667 0.0000  plane waves:    1862
 k-point 32 :   0.1667 0.0667 0.0000  plane waves:    1873
 k-point 33 :   0.2000 0.0667 0.0000  plane waves:    1893
 k-point 34 :   0.2333 0.0667 0.0000  plane waves:    1907
 k-point 35 :   0.2667 0.0667 0.0000  plane waves:    1913
 k-point 36 :   0.3000 0.0667 0.0000  plane waves:    1923
 k-point 37 :   0.3333 0.0667 0.0000  plane waves:    1929
 k-point 38 :   0.3667 0.0667 0.0000  plane waves:    1941
 k-point 39 :   0.4000 0.0667 0.0000  plane waves:    1945
 k-point 40 :   0.4333 0.0667 0.0000  plane waves:    1941
 k-point 41 :   0.4667 0.0667 0.0000  plane waves:    1951
 k-point 42 :   0.5000 0.0667 0.0000  plane waves:    1945
 k-point 43 :  -0.4667 0.0667 0.0000  plane waves:    1938
 k-point 44 :   0.2000 0.1000 0.0000  plane waves:    1888
 k-point 45 :   0.2333 0.1000 0.0000  plane waves:    1904
 k-point 46 :   0.2667 0.1000 0.0000  plane waves:    1920
 k-point 47 :   0.3000 0.1000 0.0000  plane waves:    1922
 k-point 48 :   0.3333 0.1000 0.0000  plane waves:    1931
 k-point 49 :   0.3667 0.1000 0.0000  plane waves:    1939
 k-point 50 :   0.4000 0.1000 0.0000  plane waves:    1941
 k-point 51 :   0.4333 0.1000 0.0000  plane waves:    1947
 k-point 52 :   0.4667 0.1000 0.0000  plane waves:    1945
 k-point 53 :   0.5000 0.1000 0.0000  plane waves:    1949
 k-point 54 :  -0.4667 0.1000 0.0000  plane waves:    1941
 k-point 55 :   0.2667 0.1333 0.0000  plane waves:    1918
 k-point 56 :   0.3000 0.1333 0.0000  plane waves:    1930
 k-point 57 :   0.3333 0.1333 0.0000  plane waves:    1930
 k-point 58 :   0.3667 0.1333 0.0000  plane waves:    1937
 k-point 59 :   0.4000 0.1333 0.0000  plane waves:    1939
 k-point 60 :   0.4333 0.1333 0.0000  plane waves:    1945
[...]
 k-point 77 :  -0.4667 0.2000 0.0000  plane waves:    1949
 k-point 78 :  -0.4333 0.2000 0.0000  plane waves:    1937
 k-point 79 :  -0.4000 0.2000 0.0000  plane waves:    1928
 k-point 80 :   0.4667 0.2333 0.0000  plane waves:    1948
 k-point 81 :   0.5000 0.2333 0.0000  plane waves:    1940
 k-point 82 :  -0.4667 0.2333 0.0000  plane waves:    1943
 k-point 83 :  -0.4333 0.2333 0.0000  plane waves:    1949
 k-point 84 :  -0.4000 0.2333 0.0000  plane waves:    1935
 k-point 85 :  -0.4667 0.2667 0.0000  plane waves:    1942
 k-point 86 :  -0.4333 0.2667 0.0000  plane waves:    1940
 k-point 87 :  -0.4000 0.2667 0.0000  plane waves:    1941
 k-point 88 :  -0.3667 0.2667 0.0000  plane waves:    1936
 k-point 89 :  -0.4000 0.3000 0.0000  plane waves:    1934
 k-point 90 :  -0.3667 0.3000 0.0000  plane waves:    1930
 k-point 91 :  -0.3333 0.3333 0.0000  plane waves:    1914

 maximum and minimum number of plane-waves per node :      1953     1859

 maximum number of plane-waves:      1953
 maximum index in each direction:
   IXMAX=    4   IYMAX=    4   IZMAX=   32
   IXMIN=   -4   IYMIN=   -4   IZMIN=  -32

 WARNING: aliasing errors must be expected set NGX to  18 to avoid them
 WARNING: aliasing errors must be expected set NGY to  18 to avoid them
 NGZ is ok and might be reduce to 130
 aliasing errors are usually negligible using standard VASP settings
 and one can safely disregard these warnings

 serial   3D FFT for wavefunctions
 parallel 3D FFT for charge:
    minimum data exchange during FFTs selected (reduces bandwidth)

 Broyden mixing: mesh for mixing (old mesh)
   NGX =  9   NGY =  9   NGZ = 65
  (NGX  = 32   NGY  = 32   NGZ  =280)
  gives a total of   5265 points

 initial charge density was supplied:
 charge density of overlapping atoms calculated
 number of electron       8.0000000 magnetization
 keeping initial charge density in first step

 Maximum index for augmentation-charges         3871 (set IRDMAX)

 First call to EWALD:  gamma=   0.374
 Maximum number of real-space cells 5x 5x 1
 Maximum number of reciprocal cells 2x 2x10

 FEWALD executed in parallel

----------------------------------------- Iteration    1(   1)  ---------------------------------------

 eigenvalue-minimisations  :  1688
 total energy-change (2. order) : 0.2681767E+02  (-0.2913710E+03)
 number of electron       8.0000000 magnetization
 augmentation part        8.0000000 magnetization

 DIPCOR: dipole corrections for dipol
 direction  3 min pos   141,
 dipolmoment           0.000000      0.000000     -0.000000 electrons x Angstroem
 Tr[quadrupol]        -4.098390

 energy correction for charged system         0.000000 eV
 dipol+quadrupol energy correction           -0.000000 eV
 added-field ion interaction          0.000000 eV  (added to PSCEN)

 Free energy of the ion-electron system (eV)
  alpha Z        PSCENC =         3.09698544
  Ewald energy   TEWEN  =      1283.42325059
  -Hartree energ DENC   =     -1496.64196973
  -exchange      EXHF   =         0.00000000
  -V(xc)+E(xc)   XCENC  =        26.31087813
  PAW double counting   =       217.04409276     -218.18290438
  entropy T*S    EENTRO =         0.00189187
  eigenvalues    EBANDS =       -82.48900001
  atomic energy  EATOM  =       294.25444774
  Solvation  Ediel_sol  =         0.00000000
  free energy    TOTEN  =        26.81767242 eV

  energy without entropy =       26.81578055  energy(sigma->0) =       26.81704180

[...]

 eigenvalue-minimisations  :  2096
 total energy-change (2. order) :-0.4373359E+02  (-0.3783187E+02)
 number of electron       8.0000000 magnetization
 augmentation part        8.0000000 magnetization

[...]

 Broyden mixing:
  rms(total) = 0.62541E+00    rms(broyden)= 0.62535E+00
  rms(prec ) = 0.66795E+00
  weight for this iteration     100.00

[...]

 eigenvalues of (default mixing * dielectric matrix)
  average eigenvalue GAMMA=   2.2572
  2.2572

[...]

 eigenvalue-minimisations  :  1877
 total energy-change (2. order) : 0.1697324E-03  (-0.2792692E-04)
 number of electron       8.0000000 magnetization
 augmentation part        0.1887723 magnetization

[...]

 Broyden mixing:
  rms(total) = 0.34928E-05    rms(broyden)= 0.34923E-05
  rms(prec ) = 0.37687E-05
  weight for this iteration     100.00

 eigenvalues of (default mixing * dielectric matrix)
  average eigenvalue GAMMA=   2.9909
  9.7795  8.4751  5.2581  4.0077  2.9262  2.9262  2.6030  2.2829  2.2829  0.9504
  0.9504  0.9844  0.9844  1.0529  1.1951  1.1951

[...]

----------------------------------------- Iteration    1(  22)  ---------------------------------------

 eigenvalue-minimisations  :  1135
 total energy-change (2. order) :-0.4990284E-08  (-0.4154858E-10)
 number of electron       8.0000000 magnetization
 augmentation part        0.1887018 magnetization

 DIPCOR: dipole corrections for dipol
 direction  3 min pos   153,
 dipolmoment           0.000000      0.000000      0.000008 electrons x Angstroem
 Tr[quadrupol]        -4.598097

 energy correction for charged system         0.000000 eV
 dipol+quadrupol energy correction           -0.000000 eV
 added-field ion interaction          0.000092 eV  (added to PSCEN)

 Free energy of the ion-electron system (eV)
  alpha Z        PSCENC =         3.09707793
  Ewald energy   TEWEN  =      1283.42325059
  -Hartree energ DENC   =     -1530.27373024
  -exchange      EXHF   =         0.00000000
  -V(xc)+E(xc)   XCENC  =        27.47672020
  PAW double counting   =       842.71282160     -844.05892622
  entropy T*S    EENTRO =        -0.00023313
  eigenvalues    EBANDS =       -95.09474934
  atomic energy  EATOM  =       294.25444774
  Solvation  Ediel_sol  =         0.00000000
  free energy    TOTEN  =       -18.46332086 eV

  energy without entropy =      -18.46308774  energy(sigma->0) =      -18.46324316

 average (electrostatic) potential at core
  the test charge radii are     0.6991
  (the norm of the test charge is              1.0000)
       1 -58.2649       2 -58.2648

 E-fermi :  -2.7859     XC(G=0):  -2.1831     alpha+bet : -1.8892

 k-point     1 :       0.0000    0.0000    0.0000
  band No.  band energies     occupation
      1     -22.2203      2.00000
      2     -10.3322      2.00000
      3      -5.8213      2.00000
      4      -5.8213      2.00000
      5       0.5130     -0.00000
      6       1.3001     -0.00000
      7       5.4844      0.00000
      8       5.4847      0.00000

[...]

 k-point    91 :      -0.3333    0.3333    0.0000
  band No.  band energies     occupation
      1     -15.3527      2.00000
      2     -15.3527      2.00000
      3     -13.2570      2.00000
      4      -2.7860      1.00086
      5      -2.7860      1.00084
      6       7.8159      0.00000
      7      10.0380      0.00000
      8      10.0380      0.00000

 soft charge-density along one line, spin component           1
         0         1         2         3         4         5         6         7         8         9
 total charge-density along one line

------------------------ aborting loop because EDIFF is reached ----------------------------------------

  FORCE on cell =-STRESS in cart. coord.  units (eV):
  Direction    XX          YY          ZZ          XY          YZ          ZX
  Alpha Z     3.09699     3.09699     3.09699
  Ewald    1551.31826  1551.31826 -1819.21330     0.00000     0.00000     0.00000
  Hartree  1518.88542  1518.88542 -1507.49724    -0.00000    -0.00000    -0.00000
  E(xc)     -29.64241   -29.64241   -30.75476    -0.00000     0.00000     0.00000
  Local   -3156.03723 -3156.03727  3224.13001     0.00000    -0.00000    -0.00000
  n-local    -7.27575    -6.71549    -6.41533     0.29127     0.00000     0.00000
  augment    -0.76126    -0.76121    -0.70509    -0.00000    -0.00000    -0.00000
  Kinetic   121.60441   117.44416   137.07599    -3.19084    -0.00000     0.00000
  Fock        0.00000     0.00000     0.00000     0.00000     0.00000     0.00000
  Total      -0.61157    -0.61157    -0.28274     0.00000    -0.00000     0.00000
  in kB      -9.23517    -9.23517    -4.26964     0.00000    -0.00000     0.00000

 VOLUME and BASIS-vectors are now :
  energy-cutoff  :      400.00
  volume of cell :      106.10
      direct lattice vectors                 reciprocal lattice vectors
     2.143412872 -1.237500000  0.000000000     0.233272836 -0.404040404  0.000000000
     2.143412872  1.237500000  0.000000000     0.233272836  0.404040404 -0.000000000
     0.000000000  0.000000000 20.000000000    -0.000000000  0.000000000  0.050000000

  length of vectors
     2.474999998  2.474999998 20.000000000     0.466545672  0.466545672  0.050000000

 FORCES acting on ions
    electron-ion (+dipol)            ewald-force                    non-local-force                 convergence-correction
   0.526E-06 0.655E-14 0.543E-04   -.211E-06 -.182E-14 0.000E+00   0.139E-16 0.555E-16 0.000E+00   0.558E-10 -.273E-14 0.929E-13
   -.208E-05 0.356E-13 0.539E-04   0.211E-06 0.623E-14 0.000E+00   0.139E-16 -.416E-16 0.000E+00   -.555E-10 0.141E-14 0.933E-13
   -.156E-05 0.421E-13 0.108E-03   0.111E-13 0.442E-14 0.000E+00   0.278E-16 0.139E-16 0.000E+00   0.308E-12 -.132E-14 0.186E-12

 POSITION                                       TOTAL-FORCE (eV/Angst)
      0.00000      0.00000      0.00000        -0.000000     -0.000000      0.000000
      1.42894      0.00000      0.00000         0.000000      0.000000      0.000000
    total drift:                               -0.000002      0.000000      0.000108

  FREE ENERGIE OF THE ION-ELECTRON SYSTEM (eV)
  free  energy   TOTEN  =       -18.46332086 eV

  energy  without entropy=      -18.46308774  energy(sigma->0) =      -18.46324316

 writing wavefunctions
 vacuum level on the upper side and lower side of the slab         1.496         1.496